100
32
32
22
16
1
4
20
27
19
12
9
18
4
25
9
9
9
26
1
8
21
1
2
2
2
3
3
2
6
2
1
1
2
18
1
1
2
3
1
1
18
1
17
1
1
1
4
2
1
18
1
1
2
20
3
1
2
1
2
1
2
3
1
3
4
20
4
1
3
18
4
1
17
3
2
3
1
2
2
4
1
5
5
4
21
17
4
6
2
4
2
3
1
2
2
1
1
2
2
2
1